p tw 63 100
5 15
2 10
2 18
2 19
2 62
4 12
4 18
4 24
4 11
10 15
10 13
10 11
56 60
42 45
42 56
42 46
42 52
42 60
37 52
14 16
14 29
14 18
14 28
20 30
20 26
20 27
46 54
46 49
61 63
1 13
1 2
6 20
6 7
6 17
21 29
21 25
21 26
33 48
33 56
33 47
38 60
9 25
9 22
53 56
53 57
13 63
13 29
41 47
41 44
41 61
17 26
17 29
32 48
32 34
34 37
34 52
34 60
34 59
44 52
12 29
49 51
39 53
3 22
3 18
3 6
3 5
35 46
35 43
35 63
48 60
48 51
18 25
50 57
50 53
50 55
50 51
16 29
31 60
31 45
31 39
40 60
40 44
40 53
26 30
55 58
23 28
8 22
8 23
36 47
36 53
36 38
30 61
51 52
19 30
19 24
47 50
47 62
15 27
15 28
62 63
